This is Ipopt version 3.10.0, running with linear solver ma27.

Number of nonzeros in equality constraint Jacobian...:        0
Number of nonzeros in inequality constraint Jacobian.:       48
Number of nonzeros in Lagrangian Hessian.............:        0

Total number of variables............................:        6
                     variables with only lower bounds:        0
                variables with lower and upper bounds:        6
                     variables with only upper bounds:        0
Total number of equality constraints.................:        0
Total number of inequality constraints...............:        8
        inequality constraints with only lower bounds:        0
   inequality constraints with lower and upper bounds:        0
        inequality constraints with only upper bounds:        8

iter    objective    inf_pr   inf_du lg(mu)  ||d||  lg(rg) alpha_du alpha_pr  ls
   0  7.6568542e+00 2.25e+00 1.34e+00   0.0 0.00e+00    -  0.00e+00 0.00e+00   0
   1  9.4722077e+00 1.37e+00 1.03e+01  -0.4 1.62e+00    -  5.16e-01 5.22e-01f  1
   2  9.6224371e+00 7.10e-01 4.34e+00  -0.4 1.06e+00    -  9.63e-01 5.62e-01h  1
   3  1.2878785e+01 4.86e-01 2.46e+01  -0.4 9.25e-01    -  6.79e-01 8.59e-01h  1
   4  1.2746599e+01 2.13e-01 2.52e+00  -0.5 5.86e-01    -  7.51e-01 7.28e-01f  1
   5  1.3633216e+01 1.07e-01 1.72e+00  -1.3 6.14e-01    -  8.08e-01 6.16e-01h  1
   6  1.4098548e+01 2.30e-02 3.09e+00  -1.7 5.65e-01    -  9.99e-01 7.29e-01h  1
   7  1.4159917e+01 1.58e-02 4.23e+00  -2.5 1.31e-01    -  9.99e-01 3.27e-01h  1
   8  1.4303524e+01 6.55e-03 1.24e+00  -3.1 2.74e-01    -  1.00e+00 8.27e-01h  1
   9  1.4442204e+01 2.11e-04 9.56e-01  -3.9 6.45e-02    -  1.00e+00 9.79e-01h  1
iter    objective    inf_pr   inf_du lg(mu)  ||d||  lg(rg) alpha_du alpha_pr  ls
  10  1.4445373e+01 2.34e-05 1.55e-01  -5.5 1.63e-02    -  1.00e+00 9.49e-01h  1
  11  1.4445806e+01 6.19e-07 3.36e-03  -7.0 2.94e-03    -  1.00e+00 9.96e-01h  1
  12  1.4445818e+01 0.00e+00 4.28e-06  -9.0 2.06e-05    -  1.00e+00 1.00e+00h  1

Number of Iterations....: 12

                                   (scaled)                 (unscaled)
Objective...............:   1.4445818457912656e+01    1.4445818457912656e+01
Dual infeasibility......:   4.2787370573282857e-06    4.2787370573282857e-06
Constraint violation....:   0.0000000000000000e+00    0.0000000000000000e+00
Complementarity.........:   1.2827462511487125e-09    1.2827462511487125e-09
Overall NLP error.......:   4.2787370573282857e-06    4.2787370573282857e-06


Number of objective function evaluations             = 13
Number of objective gradient evaluations             = 13
Number of equality constraint evaluations            = 0
Number of inequality constraint evaluations          = 13
Number of equality constraint Jacobian evaluations   = 0
Number of inequality constraint Jacobian evaluations = 13
Number of Lagrangian Hessian evaluations             = 0
Total CPU secs in IPOPT (w/o function evaluations)   =      0.017
Total CPU secs in NLP function evaluations           =     19.423

EXIT: Stopping optimization at current point as requested by user.
